c   #vars: 45   #clauses: 189   #literals: 526
c 
p cnf 45 189
-1 -2 0
6 32 33 -40 0
-4 -5 0
-5 15 16 23 0
-7 -8 0
-9 -10 0
-11 -12 0
-13 -14 0
-15 -16 0
-17 -18 0
-17 -18 24 25 0
-19 -20 0
-21 -22 0
-22 24 25 40 0
-24 -25 0
1 2 26 27 0
-26 -27 0
-28 -29 0
-30 -31 0
-32 -33 0
-34 -35 0
-36 -37 0
-38 -39 0
1 2 -26 45 0
-41 -42 0
17 18 -24 -25 0
13 14 43 44 0
-43 -44 0
6 -25 -32 40 0
13 14 21 22 0
-1 -17 0
-2 -18 0
26 27 38 39 0
-1 -19 0
-2 -20 0
-1 -26 0
-2 -27 0
3 -16 -17 23 0
-1 -38 0
-2 -39 0
-2 -45 0
6 -19 32 33 0
-3 -18 0
28 29 34 35 0
-1 19 20 45 0
-6 24 25 40 0
30 31 41 42 0
19 20 -26 45 0
-3 -29 0
3 -5 23 -28 0
-4 -23 0
21 22 -25 40 0
-4 -24 0
-5 -25 0
26 27 36 37 0
-4 -34 0
-5 -35 0
15 16 34 35 0
-4 -41 0
-5 -42 0
3 -16 23 -28 0
-3 15 16 23 0
-6 -20 0
3 -17 28 29 0
4 5 -16 23 0
-6 -33 0
1 2 19 20 0
-3 4 5 23 0
1 2 -19 45 0
13 14 28 29 0
-7 -24 0
-8 -25 0
3 -23 28 29 0
-7 -32 0
-8 -33 0
15 16 38 39 0
-7 -34 0
-8 -35 0
-7 -41 0
-8 -42 0
7 8 32 33 0
6 -22 -32 40 0
-9 -17 0
-10 -18 0
11 12 43 44 0
-9 -21 0
-10 -22 0
11 12 36 37 0
-9 -30 0
-10 -31 0
7 8 34 35 0
-9 -36 0
-10 -37 0
3 -5 -17 23 0
-9 -43 0
-10 -44 0
-11 -21 0
-12 -22 0
30 31 43 44 0
-11 -36 0
-12 -37 0
1 2 38 39 0
-11 -41 0
-12 -42 0
19 20 34 35 0
-11 -43 0
-12 -44 0
13 14 19 20 0
-13 -19 0
-14 -20 0
7 8 24 25 0
-13 -21 0
-14 -22 0
-13 -28 0
-14 -29 0
21 22 38 39 0
-13 -36 0
-14 -37 0
-13 -38 0
-14 -39 0
13 14 38 39 0
-13 -43 0
-14 -44 0
15 16 28 29 0
-15 -23 0
-6 21 22 40 0
9 10 17 18 0
-15 -28 0
-16 -29 0
1 2 17 18 0
-15 -32 0
-16 -33 0
3 17 18 -28 0
-15 -34 0
-16 -35 0
6 19 20 -40 0
-15 -38 0
-16 -39 0
-17 -41 0
-18 -42 0
6 19 20 -32 0
17 18 41 42 0
6 -19 -22 40 0
11 12 21 22 0
3 17 18 -23 0
13 14 36 37 0
9 10 21 22 0
30 31 36 37 0
-19 -34 0
-20 -35 0
19 20 41 42 0
-19 -41 0
-20 -42 0
9 10 36 37 0
-20 -45 0
4 5 24 25 0
-21 -38 0
-22 -39 0
-21 -40 0
-19 26 27 45 0
-24 -32 0
-25 -33 0
-24 -40 0
-1 26 27 45 0
4 5 34 35 0
6 -19 -25 40 0
9 10 43 44 0
-26 -36 0
-27 -37 0
11 12 41 42 0
-26 -38 0
-27 -39 0
7 8 41 42 0
-27 -45 0
9 10 30 31 0
-28 -32 0
-29 -33 0
4 5 41 42 0
-28 -34 0
-29 -35 0
28 29 32 33 0
-30 -36 0
-31 -37 0
24 25 32 33 0
-30 -41 0
-31 -42 0
15 16 32 33 0
-30 -43 0
-31 -44 0
